500
168
186
480
152
513
44
340
969
520
390
329
108
475
344
128
490
780
112
855
70
624
738
434
576
111
442
484
33
700
640
116
644
432
375
210
434
294
646
243
900
612
816
615
420
893
333
286
344
96
450
